(declare-sort sk 0)
(declare-sort fun1 0)
(declare-sort fun12 0)
(declare-sort fun13 0)
(declare-sort fun14 0)
(declare-sort fun15 0)
(declare-sort fun16 0)
(declare-sort sk2 0)
(declare-datatype list2 ((nil2) (cons2 (head2 sk) (tail2 list2))))
(declare-datatype Nat ((zero) (succ (p Nat))))
(declare-datatype list ((nil) (cons (head Nat) (tail list))))
(declare-fun plus (Nat Nat) Nat)
(declare-fun minus (Nat Nat) Nat)
(declare-fun nmsorttd-half1 (Nat) Nat)
(declare-fun leq (Nat Nat) Bool)
(declare-fun lmerge (list list) list)
(declare-fun nmsorttd (list) list)
(declare-fun take (Nat list) list)
(declare-fun take2 (Nat list2) list2)
(declare-fun length (list) Nat)
(declare-fun length2 (list2) Nat)
(declare-fun elem (sk list2) Bool)
(declare-fun drop (Nat list) list)
(declare-fun drop2 (Nat list2) list2)
(declare-fun deleteBy (fun12 sk list2) list2)
(declare-fun isPermutation (list2 list2) Bool)
(declare-fun lam (sk) fun14)
(declare-const lam2 fun12)
(declare-fun apply1 (fun1 sk) sk)
(declare-fun apply12 (fun12 sk) fun14)
(declare-fun apply13 (fun13 sk) sk2)
(declare-fun apply14 (fun14 sk) Bool)
(declare-fun apply15 (fun15 sk2) sk)
(declare-fun apply16 (fun16 sk2) sk2)
(assert
  (forall ((x Nat) (y Nat) (z Nat))
    (= (plus x (plus y z)) (plus (plus x y) z))))
(assert (forall ((x Nat) (y Nat)) (= (plus x y) (plus y x))))
(assert (forall ((x Nat)) (= (plus x zero) x)))
(assert (forall ((x Nat)) (= (plus zero x) x)))
(assert (isPermutation nil2 nil2))
(assert (= (nmsorttd-half1 zero) zero))
(assert (= (nmsorttd nil) nil))
(assert (= (length nil) zero))
(assert (= (length2 nil2) zero))
(assert (forall ((y list)) (= (take zero y) nil)))
(assert (forall ((y list2)) (= (take2 zero y) nil2)))
(assert (forall ((z Nat)) (= (take (succ z) nil) nil)))
(assert (forall ((z Nat)) (= (take2 (succ z) nil2) nil2)))
(assert
  (forall ((z Nat) (z2 Nat) (xs list))
    (= (take (succ z) (cons z2 xs)) (cons z2 (take z xs)))))
(assert
  (forall ((z Nat) (z2 sk) (xs list2))
    (= (take2 (succ z) (cons2 z2 xs)) (cons2 z2 (take2 z xs)))))
(assert (forall ((y Nat)) (= (plus zero y) y)))
(assert
  (forall ((y Nat) (z Nat)) (= (plus (succ z) y) (succ (plus z y)))))
(assert (forall ((y Nat)) (= (minus zero y) zero)))
(assert (forall ((z Nat)) (= (minus (succ z) zero) zero)))
(assert
  (forall ((z Nat) (y2 Nat))
    (= (minus (succ z) (succ y2)) (minus z y2))))
(assert
  (forall ((x Nat))
    (=> (= x (succ zero)) (= (nmsorttd-half1 x) zero))))
(assert
  (forall ((y Nat))
    (=> (distinct y zero)
      (= (nmsorttd-half1 (succ y))
        (plus (succ zero)
          (nmsorttd-half1 (minus (succ y) (succ (succ zero)))))))))
(assert (forall ((y Nat)) (leq zero y)))
(assert (forall ((z Nat)) (not (leq (succ z) zero))))
(assert
  (forall ((z Nat) (x2 Nat))
    (= (leq (succ z) (succ x2)) (leq z x2))))
(assert (forall ((y list)) (= (lmerge nil y) y)))
(assert
  (forall ((z Nat) (x2 list))
    (= (lmerge (cons z x2) nil) (cons z x2))))
(assert
  (forall ((z Nat) (x2 list) (x3 Nat) (x4 list))
    (=> (leq z x3)
      (= (lmerge (cons z x2) (cons x3 x4))
        (cons z (lmerge x2 (cons x3 x4)))))))
(assert
  (forall ((z Nat) (x2 list) (x3 Nat) (x4 list))
    (=> (not (leq z x3))
      (= (lmerge (cons z x2) (cons x3 x4))
        (cons x3 (lmerge (cons z x2) x4))))))
(assert
  (forall ((y Nat) (l list))
    (= (length (cons y l)) (plus (succ zero) (length l)))))
(assert
  (forall ((y sk) (l list2))
    (= (length2 (cons2 y l)) (plus (succ zero) (length2 l)))))
(assert (forall ((x sk)) (not (elem x nil2))))
(assert
  (forall ((x sk) (z sk) (xs list2))
    (= (elem x (cons2 z xs)) (or (= z x) (elem x xs)))))
(assert (forall ((y list)) (= (drop zero y) y)))
(assert (forall ((y list2)) (= (drop2 zero y) y)))
(assert (forall ((z Nat)) (= (drop (succ z) nil) nil)))
(assert (forall ((z Nat)) (= (drop2 (succ z) nil2) nil2)))
(assert
  (forall ((z Nat) (z2 Nat) (xs1 list))
    (= (drop (succ z) (cons z2 xs1)) (drop z xs1))))
(assert
  (forall ((z Nat) (z2 sk) (xs1 list2))
    (= (drop2 (succ z) (cons2 z2 xs1)) (drop2 z xs1))))
(assert
  (forall ((y Nat)) (= (nmsorttd (cons y nil)) (cons y nil))))
(assert
  (forall ((y Nat) (x2 Nat) (x3 list) (k Nat))
    (=> (= k (nmsorttd-half1 (length (cons y (cons x2 x3)))))
      (= (nmsorttd (cons y (cons x2 x3)))
        (lmerge (nmsorttd (take k (cons y (cons x2 x3))))
          (nmsorttd (drop k (cons y (cons x2 x3)))))))))
(assert (forall ((x fun12) (y sk)) (= (deleteBy x y nil2) nil2)))
(assert
  (forall ((x fun12) (y sk) (y2 sk) (ys list2))
    (=> (apply14 (apply12 x y) y2)
      (= (deleteBy x y (cons2 y2 ys)) ys))))
(assert
  (forall ((x fun12) (y sk) (y2 sk) (ys list2))
    (=> (not (apply14 (apply12 x y) y2))
      (= (deleteBy x y (cons2 y2 ys)) (cons2 y2 (deleteBy x y ys))))))
(assert
  (forall ((y list2) (x3 sk) (xs list2))
    (= (isPermutation (cons2 x3 xs) y)
      (and (elem x3 y) (isPermutation xs (deleteBy lam2 x3 y))))))
(assert
  (forall ((z sk) (x2 list2))
    (not (isPermutation nil2 (cons2 z x2)))))
(assert (forall ((x4 sk)) (= (apply12 lam2 x4) (lam x4))))
(assert
  (forall ((x4 sk) (x5 sk)) (= (apply14 (lam x4) x5) (= x4 x5))))
